units               real    
dimension           3   
newton              off 
#processors         * * *
boundary            p p f 
atom_style          full  #mpirun -np 4 ./lmp_mpi -in ionicInput

##force field         sudo ln -s /lib/x86_64-linux-gnu/libc.so.6 /lib64/libc.so.6
pair_style          lj/cut/coul/long 12.0
pair_modify mix arithmetic tail yes
dihedral_style      opls                    #echo 0 > /proc/sys/kernel/yama/ptrace_scope
special_bonds lj/coul 0.0 0.0 0.5
bond_style          harmonic
angle_style         harmonic
kspace_style        pppm 1.0e-6
kspace_modify       slab 3.0


##atom definition
#read_restart        EQUI.40000003V
read_data           KOHdata.lmp
include             KOHpair.lmp


##setting
neighbor            2 bin
neigh_modify delay 0 every 1 check yes
group ele type 4
group sol type 1 2 3 

group elec2 molecule 802
group elec1 molecule 801
#group C4C1im type 8
#group SCN type 13

#minimize 1.0e-4 1.0e-6 100 1000
#reset_timestep 0

fix SHAKE sol shake 0.0001 20 0 b 1

#compute 2 C4C1im property/atom q
#compute 4 elec2 reduce sum c_2
#variable chargeDensity1 equal c_4*0.00111111

#compute 3 SCN property/atom q
#compute 5 elec1 reduce sum c_3
#variable chargeDensity2 equal c_5*0.00111111

#compute DENSITY1 SCN chunk/atom bin/1d z lower 0.2
#fix DENSITYFIXSCN SCN ave/chunk 100 5 1000 DENSITY1 c_3 file out.IL_charge_density13V

#compute DENSITY2 C4C1im chunk/atom bin/1d z lower 0.2
#fix DENSITYFIXC4C1im C4C1im ave/chunk 100 5 1000 DENSITY2 c_2 file out.IL_charge_density23V

#compute displacementSCN SCN displace/atom
#compute averageDisplacementSCN SCN reduce ave c_displacementSCN[3] 
#variable perpendicularDisplacementSCN equal c_averageDisplacementSCN/150

#compute displacementC4C1im C4C1im displace/atom
#compute averageDisplacementC4C1im C4C1im reduce ave c_displacementC4C1im[3] 
#variable perpendicularDisplacementC4C1im equal c_averageDisplacementC4C1im/150




#dump 1 elec2 custom 1000 elec24 q  
#dump_modify 1 flush yes
#dump 2 elec1 custom 50000 elec14 q  #ele
#dump_modify 2 flush yes
#dump 4 all custom 1000 ionicTraj_nvt.lammpstrjTEST2V id mol type x y z q
#dump_modify 4 flush yes
dump 2 all xyz 500 lmp.xyz
dump 4a all custom 500 wer id type x y z q



thermo_style        custom step 
thermo_modify flush yes
#thermo_style         custom step temp  
thermo              1000
restart 25000 EQUI  #10000

##run

run_style           verlet
timestep            0.05
velocity ele set 0.0 0.0 0.0
fix 0 ele setforce 0.0 0.0 0.0
#fix 1 sol nvt temp 360.0 350.0 100.0  #298
#run 5000 upto start 0 stop 10000
#unfix 1
fix 2 sol nvt temp 300.0 300.0 100.0  #298
#fix e1 all conp 1 1.979 801 802 -1.5 1.5 inv iter #0.5 1.979
run 10000
unfix 2
reset_timestep 0
timestep            1.0
fix 1 sol nvt temp 300.0 300.0 100.0 
run 10000



