pair_coeff    1    1      0.076482     3.130000  # K K
pair_coeff    1    2      0.000000     0.000000  # K Hw
pair_coeff    1    3      0.109029     3.147700  # K Ow
pair_coeff    2    2      0.000000     0.000000  # Hw Hw
pair_coeff    2    3      0.000000     0.000000  # Hw Ow
pair_coeff    3    3      0.155425     3.165500  # Ow Ow
pair_coeff    4    4      0.086000     3.400000